param n := 120;
param c := 450
param : V : p w :=
   0	  52	  42
   1	  79	  69
   2	  77	  67
   3	  67	  57
   4	 103	  93
   5	 100	  90
   6	  48	  38
   7	  46	  36
   8	  55	  45
   9	  52	  42
  10	  43	  33
  11	  89	  79
  12	  37	  27
  13	  67	  57
  14	  54	  44
  15	  94	  84
  16	  96	  86
  17	 102	  92
  18	  56	  46
  19	  48	  38
  20	  95	  85
  21	  43	  33
  22	  92	  82
  23	  83	  73
  24	  59	  49
  25	  80	  70
  26	  69	  59
  27	  33	  23
  28	  67	  57
  29	  82	  72
  30	  84	  74
  31	  79	  69
  32	  43	  33
  33	  52	  42
  34	  38	  28
  35	  56	  46
  36	  40	  30
  37	  74	  64
  38	  39	  29
  39	  84	  74
  40	  51	  41
  41	  59	  49
  42	  65	  55
  43	 108	  98
  44	  90	  80
  45	  42	  32
  46	  35	  25
  47	  48	  38
  48	  92	  82
  49	  40	  30
  50	  45	  35
  51	  49	  39
  52	  67	  57
  53	  94	  84
  54	  72	  62
  55	  60	  50
  56	  65	  55
  57	  37	  27
  58	  40	  30
  59	  46	  36
  60	  30	  20
  61	  88	  78
  62	  57	  47
  63	  36	  26
  64	  55	  45
  65	  51	  41
  66	  68	  58
  67	 108	  98
  68	 101	  91
  69	 106	  96
  70	  83	  73
  71	  94	  84
  72	  47	  37
  73	 103	  93
  74	 101	  91
  75	  53	  43
  76	  83	  73
  77	  95	  85
  78	  91	  81
  79	  89	  79
  80	  81	  71
  81	  90	  80
  82	  86	  76
  83	  93	  83
  84	  51	  41
  85	  88	  78
  86	  80	  70
  87	  33	  23
  88	  52	  42
  89	  97	  87
  90	  53	  43
  91	  94	  84
  92	  70	  60
  93	  65	  55
  94	  59	  49
  95	  88	  78
  96	  83	  73
  97	  72	  62
  98	  46	  36
  99	  54	  44
 100	 104	  94
 101	  79	  69
 102	  42	  32
 103	 106	  96
 104	  80	  70
 105	  94	  84
 106	  68	  58
 107	  88	  78
 108	  35	  25
 109	  90	  80
 110	  68	  58
 111	  76	  66
 112	  93	  83
 113	  34	  24
 114	 108	  98
 115	  70	  60
 116	  52	  42
 117	  53	  43
 118	  53	  43
 119	  49	  39
;

set E :=
   0	   3
   0	   4
   0	   5
   0	   6
   0	  11
   0	  12
   0	  21
   0	  22
   0	  24
   0	  25
   0	  38
   0	  40
   0	  41
   0	  43
   0	  45
   0	  52
   0	  56
   0	  63
   0	  64
   0	  67
   0	  74
   0	  75
   0	  78
   0	  80
   0	  81
   0	  95
   0	 106
   0	 111
   0	 118
   1	  10
   1	  12
   1	  14
   1	  29
   1	  30
   1	  36
   1	  37
   1	  44
   1	  53
   1	  60
   1	  63
   1	  71
   1	  73
   1	  77
   1	  81
   1	  82
   1	  85
   1	  87
   1	  96
   1	 112
   1	 119
   2	  14
   2	  20
   2	  25
   2	  32
   2	  33
   2	  42
   2	  43
   2	  51
   2	  54
   2	  63
   2	  64
   2	  72
   2	  76
   2	  82
   2	  85
   2	  88
   2	  92
   2	  97
   2	 100
   2	 103
   2	 111
   2	 112
   3	   6
   3	  13
   3	  17
   3	  21
   3	  23
   3	  25
   3	  29
   3	  34
   3	  35
   3	  41
   3	  44
   3	  49
   3	  57
   3	  67
   3	  73
   3	  83
   3	  84
   3	  87
   3	 110
   3	 113
   3	 114
   3	 119
   4	  31
   4	  32
   4	  38
   4	  44
   4	  45
   4	  47
   4	  64
   4	  65
   4	  69
   4	  71
   4	  81
   4	  82
   4	  83
   4	  84
   4	  96
   4	  98
   4	 102
   4	 105
   4	 117
   5	  13
   5	  15
   5	  17
   5	  20
   5	  28
   5	  34
   5	  37
   5	  39
   5	  53
   5	  55
   5	  58
   5	  66
   5	  69
   5	  74
   5	  81
   5	  82
   5	  84
   5	  88
   5	  89
   5	 100
   5	 108
   5	 114
   6	  17
   6	  31
   6	  33
   6	  38
   6	  49
   6	  58
   6	  60
   6	  83
   6	  90
   6	  97
   6	 111
   6	 112
   6	 113
   7	  12
   7	  20
   7	  29
   7	  42
   7	  44
   7	  47
   7	  48
   7	  50
   7	  51
   7	  63
   7	  64
   7	  75
   7	  83
   7	  84
   7	  89
   7	  93
   7	  97
   7	  98
   7	  99
   7	 102
   7	 105
   7	 112
   7	 117
   8	  17
   8	  22
   8	  33
   8	  46
   8	  54
   8	  62
   8	  69
   8	  72
   8	  85
   8	  92
   8	  96
   8	 104
   8	 108
   8	 116
   8	 118
   8	 119
   9	  25
   9	  28
   9	  40
   9	  41
   9	  58
   9	  63
   9	  65
   9	  67
   9	  71
   9	  74
   9	  78
   9	  84
   9	  86
   9	  95
   9	  96
   9	  98
   9	 106
   9	 109
   9	 110
   9	 116
   9	 118
  10	  11
  10	  16
  10	  24
  10	  25
  10	  33
  10	  38
  10	  42
  10	  45
  10	  51
  10	  54
  10	  57
  10	  61
  10	  68
  10	  69
  10	  70
  10	  71
  10	  91
  10	  98
  10	 103
  10	 107
  10	 109
  10	 110
  10	 119
  11	  12
  11	  15
  11	  20
  11	  23
  11	  30
  11	  35
  11	  39
  11	  42
  11	  44
  11	  46
  11	  47
  11	  53
  11	  55
  11	  60
  11	  63
  11	  64
  11	  76
  11	  77
  11	  87
  11	  90
  11	  91
  11	  93
  11	  97
  11	 103
  11	 106
  11	 107
  12	  16
  12	  22
  12	  26
  12	  29
  12	  38
  12	  43
  12	  44
  12	  45
  12	  47
  12	  49
  12	  50
  12	  58
  12	  63
  12	  72
  12	  82
  12	  94
  12	  95
  12	 101
  12	 102
  12	 110
  12	 113
  13	  16
  13	  17
  13	  18
  13	  20
  13	  21
  13	  22
  13	  30
  13	  34
  13	  36
  13	  42
  13	  46
  13	  55
  13	  60
  13	  63
  13	  65
  13	  68
  13	  69
  13	  70
  13	  77
  13	  81
  13	  82
  13	  92
  13	 103
  13	 105
  13	 112
  13	 114
  13	 117
  13	 119
  14	  17
  14	  30
  14	  31
  14	  42
  14	  44
  14	  48
  14	  49
  14	  53
  14	  54
  14	  57
  14	  66
  14	  67
  14	  69
  14	  87
  14	  88
  14	  90
  14	 100
  14	 102
  14	 107
  14	 117
  15	  19
  15	  20
  15	  22
  15	  24
  15	  27
  15	  45
  15	  48
  15	  60
  15	  62
  15	  66
  15	  76
  15	  77
  15	  78
  15	  81
  15	  82
  15	  95
  15	  98
  15	 102
  15	 104
  15	 107
  15	 108
  15	 115
  15	 116
  16	  19
  16	  20
  16	  25
  16	  28
  16	  35
  16	  45
  16	  54
  16	  56
  16	  71
  16	  73
  16	  81
  16	  85
  16	  86
  16	  88
  16	  89
  16	  93
  16	 100
  16	 102
  16	 112
  16	 113
  17	  19
  17	  23
  17	  29
  17	  30
  17	  33
  17	  39
  17	  40
  17	  44
  17	  51
  17	  61
  17	  63
  17	  69
  17	  73
  17	  76
  17	  91
  17	  92
  17	 100
  17	 105
  17	 106
  17	 108
  17	 110
  17	 112
  18	  19
  18	  33
  18	  50
  18	  53
  18	  55
  18	  56
  18	  60
  18	  65
  18	  71
  18	  94
  18	 102
  18	 111
  18	 113
  19	  24
  19	  27
  19	  31
  19	  33
  19	  36
  19	  38
  19	  40
  19	  41
  19	  59
  19	  71
  19	  75
  19	  76
  19	  82
  19	  90
  19	  99
  19	 103
  19	 112
  20	  31
  20	  35
  20	  36
  20	  37
  20	  41
  20	  53
  20	  54
  20	  69
  20	  71
  20	  73
  20	  77
  20	  80
  20	  87
  20	  89
  20	  91
  20	  92
  20	  93
  20	  97
  20	 102
  20	 116
  21	  32
  21	  33
  21	  39
  21	  44
  21	  45
  21	  72
  21	  76
  21	  77
  21	  81
  21	  88
  21	  89
  21	  90
  21	  94
  21	  96
  21	  97
  21	 102
  21	 106
  21	 113
  21	 119
  22	  25
  22	  26
  22	  28
  22	  29
  22	  39
  22	  40
  22	  41
  22	  44
  22	  52
  22	  54
  22	  60
  22	  68
  22	  69
  22	  70
  22	  80
  22	  84
  22	  85
  22	  94
  22	  96
  22	  97
  22	  98
  22	 103
  22	 106
  22	 109
  23	  25
  23	  28
  23	  32
  23	  40
  23	  41
  23	  45
  23	  51
  23	  54
  23	  55
  23	  57
  23	  58
  23	  59
  23	  63
  23	  69
  23	  72
  23	  79
  23	  80
  23	  82
  23	  83
  23	  86
  23	  87
  23	  89
  23	  93
  23	  94
  23	 108
  23	 109
  23	 111
  23	 118
  24	  32
  24	  36
  24	  37
  24	  40
  24	  42
  24	  46
  24	  47
  24	  50
  24	  54
  24	  64
  24	  71
  24	  73
  24	  79
  24	  83
  24	  88
  24	  90
  24	  96
  24	 101
  24	 115
  25	  26
  25	  40
  25	  41
  25	  43
  25	  45
  25	  46
  25	  47
  25	  68
  25	  70
  25	  71
  25	  74
  25	  94
  25	 104
  25	 110
  25	 114
  25	 119
  26	  31
  26	  41
  26	  43
  26	  50
  26	  52
  26	  61
  26	  64
  26	  67
  26	  72
  26	  82
  26	  83
  26	  84
  26	  92
  26	 104
  26	 108
  26	 112
  26	 115
  27	  40
  27	  41
  27	  48
  27	  59
  27	  60
  27	  76
  27	  88
  27	  95
  27	  96
  27	  98
  28	  30
  28	  34
  28	  37
  28	  40
  28	  59
  28	  63
  28	  69
  28	  80
  28	  92
  28	  98
  28	  99
  28	 101
  28	 105
  28	 107
  28	 117
  29	  36
  29	  37
  29	  48
  29	  53
  29	  57
  29	  59
  29	  64
  29	  74
  29	  75
  29	  82
  29	  83
  29	  84
  29	  86
  29	  87
  29	  93
  29	  94
  29	 101
  29	 105
  29	 106
  29	 114
  29	 116
  30	  31
  30	  32
  30	  33
  30	  36
  30	  37
  30	  44
  30	  46
  30	  48
  30	  51
  30	  64
  30	  67
  30	  69
  30	  71
  30	  72
  30	  74
  30	  77
  30	  82
  30	  87
  30	  88
  30	  91
  30	  93
  30	  94
  30	  95
  30	 100
  30	 102
  30	 104
  30	 107
  30	 108
  30	 115
  31	  34
  31	  37
  31	  38
  31	  41
  31	  51
  31	  55
  31	  66
  31	  79
  31	  80
  31	  86
  31	  90
  31	  93
  31	  95
  31	 102
  31	 106
  31	 107
  31	 115
  31	 118
  32	  44
  32	  45
  32	  51
  32	  55
  32	  57
  32	  58
  32	  59
  32	  62
  32	  68
  32	  71
  32	  73
  32	  79
  32	  89
  32	  95
  32	  98
  32	  99
  32	 100
  32	 103
  32	 104
  32	 109
  32	 110
  32	 113
  32	 114
  32	 115
  33	  38
  33	  42
  33	  44
  33	  53
  33	  60
  33	  62
  33	  63
  33	  67
  33	  72
  33	  86
  33	  90
  33	  93
  33	 108
  33	 113
  34	  38
  34	  44
  34	  48
  34	  55
  34	  57
  34	  63
  34	  69
  34	  74
  34	  79
  34	  83
  34	  85
  34	  93
  34	  96
  34	  98
  34	 101
  34	 105
  34	 106
  34	 116
  35	  36
  35	  37
  35	  39
  35	  40
  35	  50
  35	  55
  35	  63
  35	  68
  35	  72
  35	  77
  35	  79
  35	  84
  35	  91
  35	 103
  35	 114
  36	  40
  36	  44
  36	  45
  36	  51
  36	  53
  36	  62
  36	  63
  36	  66
  36	  82
  36	  86
  36	  91
  36	  93
  36	  97
  36	 106
  37	  40
  37	  41
  37	  46
  37	  50
  37	  59
  37	  69
  37	  70
  37	  71
  37	  73
  37	  74
  37	  79
  37	  82
  37	  86
  37	  97
  37	 103
  37	 105
  37	 117
  37	 119
  38	  40
  38	  41
  38	  47
  38	  51
  38	  57
  38	  60
  38	  61
  38	  63
  38	  65
  38	  68
  38	  70
  38	  79
  38	  82
  38	  84
  38	  85
  38	  86
  38	  88
  38	  90
  38	  91
  38	  96
  38	 106
  38	 107
  38	 116
  39	  42
  39	  52
  39	  56
  39	  66
  39	  67
  39	  76
  39	  78
  39	  85
  39	  86
  39	  90
  39	  94
  39	  98
  39	 113
  40	  41
  40	  59
  40	  60
  40	  65
  40	  73
  40	  76
  40	  81
  40	  85
  40	  94
  40	  95
  40	 100
  40	 118
  40	 119
  41	  44
  41	  52
  41	  53
  41	  55
  41	  63
  41	  64
  41	  65
  41	  67
  41	  70
  41	  81
  41	  82
  41	  90
  41	 102
  41	 107
  41	 111
  41	 114
  41	 118
  41	 119
  42	  44
  42	  46
  42	  49
  42	  63
  42	  64
  42	  67
  42	  69
  42	  76
  42	  78
  42	  80
  42	  85
  42	  90
  42	 106
  42	 116
  42	 117
  42	 119
  43	  45
  43	  46
  43	  49
  43	  78
  43	  80
  43	  91
  43	  92
  43	  96
  43	  99
  43	 100
  43	 105
  43	 110
  43	 115
  43	 118
  44	  46
  44	  47
  44	  51
  44	  53
  44	  57
  44	  60
  44	  67
  44	  70
  44	  75
  44	  79
  44	  80
  44	  82
  44	  94
  44	  96
  44	 102
  44	 105
  44	 108
  44	 111
  44	 113
  45	  57
  45	  58
  45	  60
  45	  61
  45	  69
  45	  70
  45	  71
  45	  75
  45	  80
  45	  81
  45	  82
  45	  83
  45	  85
  45	  91
  45	  93
  45	 101
  45	 103
  45	 104
  45	 105
  45	 119
  46	  60
  46	  69
  46	  86
  46	  91
  46	  98
  46	 105
  46	 111
  46	 114
  47	  51
  47	  56
  47	  57
  47	  67
  47	  68
  47	  70
  47	  73
  47	  78
  47	  82
  47	  84
  47	  88
  47	  90
  47	  95
  47	  98
  47	 114
  48	  61
  48	  69
  48	  70
  48	 101
  49	  51
  49	  56
  49	  57
  49	  61
  49	  63
  49	  64
  49	  65
  49	  66
  49	  68
  49	  77
  49	  79
  49	  90
  49	  91
  49	  93
  49	  97
  49	 103
  49	 105
  49	 114
  49	 119
  50	  67
  50	  80
  50	  87
  50	  95
  50	  96
  50	  97
  50	 100
  50	 101
  50	 103
  50	 105
  50	 109
  50	 115
  50	 117
  51	  58
  51	  62
  51	  69
  51	  72
  51	  73
  51	  81
  51	  83
  51	  91
  51	  94
  51	  97
  51	  98
  51	  99
  51	 106
  51	 114
  51	 117
  52	  54
  52	  55
  52	  59
  52	  60
  52	  61
  52	  63
  52	  79
  52	  84
  52	  87
  52	  88
  52	  97
  52	 105
  52	 106
  52	 109
  52	 111
  52	 113
  52	 114
  52	 116
  52	 117
  53	  54
  53	  57
  53	  61
  53	  62
  53	  66
  53	  84
  53	  90
  53	  92
  53	 103
  53	 109
  53	 113
  53	 115
  54	  58
  54	  64
  54	  67
  54	  68
  54	  73
  54	  75
  54	  78
  54	  80
  54	  84
  54	  85
  54	  87
  54	  93
  54	 112
  54	 115
  55	  59
  55	  62
  55	  65
  55	  67
  55	  70
  55	  74
  55	  77
  55	  87
  55	  90
  55	  92
  55	 101
  55	 109
  55	 114
  56	  63
  56	  65
  56	  75
  56	  82
  56	  92
  56	  93
  56	  97
  56	  99
  56	 105
  56	 106
  56	 109
  56	 112
  56	 114
  57	  60
  57	  67
  57	  69
  57	  75
  57	  79
  57	  86
  57	  91
  57	  94
  57	  96
  57	  99
  57	 100
  57	 104
  57	 110
  58	  63
  58	  69
  58	  81
  58	  96
  58	  98
  58	 106
  58	 114
  58	 117
  59	  65
  59	  69
  59	  70
  59	  71
  59	  72
  59	  80
  59	  85
  59	  86
  59	  92
  59	  96
  59	 103
  59	 116
  59	 118
  60	  61
  60	  75
  60	  77
  60	  78
  60	  84
  60	  85
  60	 119
  61	  67
  61	  69
  61	  74
  61	  81
  61	  88
  61	 105
  61	 113
  61	 118
  61	 119
  62	  65
  62	  70
  62	  71
  62	  72
  62	  77
  62	  78
  62	  87
  62	  97
  62	 109
  63	  64
  63	  68
  63	  72
  63	  75
  63	  76
  63	  78
  63	  80
  63	  98
  63	  99
  63	 107
  63	 114
  63	 115
  63	 119
  64	  69
  64	  75
  64	  80
  64	  86
  64	  91
  64	  93
  64	  94
  64	 104
  64	 105
  64	 112
  64	 117
  65	  73
  65	  75
  65	  77
  65	  79
  65	  93
  65	  95
  65	  99
  65	 102
  65	 104
  65	 105
  65	 106
  65	 107
  65	 117
  66	  70
  66	  71
  66	  76
  66	  77
  66	  88
  66	  91
  66	  95
  66	 102
  66	 104
  66	 109
  66	 115
  66	 117
  67	  87
  67	  91
  67	  97
  67	 108
  67	 112
  67	 117
  68	  69
  68	  70
  68	  72
  68	  76
  68	  83
  68	  85
  68	  97
  68	  98
  68	  99
  68	 101
  68	 103
  68	 110
  68	 112
  68	 113
  68	 118
  69	  72
  69	  77
  69	  83
  69	  85
  69	  91
  69	  92
  69	  93
  69	  99
  69	 100
  69	 104
  69	 107
  69	 112
  69	 115
  69	 118
  70	  71
  70	  75
  70	  86
  70	  88
  70	  91
  70	  99
  70	 100
  70	 102
  70	 116
  71	  78
  71	  81
  71	  82
  71	  89
  71	  92
  71	 100
  71	 103
  71	 106
  71	 115
  71	 119
  72	  73
  72	  77
  72	  79
  72	  80
  72	  83
  72	  88
  72	  89
  72	  93
  72	  99
  72	 104
  72	 110
  72	 114
  72	 116
  73	  75
  73	  86
  73	  89
  73	  92
  73	  96
  73	  99
  73	 100
  73	 102
  73	 104
  73	 110
  73	 114
  73	 115
  73	 116
  74	  76
  74	  79
  74	  80
  74	  82
  74	  83
  74	  86
  74	  92
  74	  99
  74	 101
  74	 118
  75	  79
  75	  94
  75	 100
  75	 101
  75	 106
  75	 107
  75	 111
  76	  79
  76	  85
  76	  92
  76	  93
  76	 108
  76	 109
  76	 111
  76	 117
  76	 119
  77	  79
  77	  87
  77	  90
  77	  92
  77	  94
  77	  96
  77	  97
  77	 100
  77	 103
  77	 104
  77	 105
  77	 108
  77	 111
  77	 113
  77	 114
  77	 115
  78	  80
  78	  87
  78	  88
  78	  90
  78	 100
  78	 101
  78	 117
  78	 119
  79	  81
  79	  94
  79	 102
  79	 108
  79	 113
  80	  82
  80	  83
  80	  84
  80	  90
  80	  91
  80	 102
  80	 104
  80	 111
  80	 112
  80	 114
  80	 119
  81	  86
  81	  87
  81	  89
  81	  96
  81	 100
  81	 102
  81	 111
  82	  84
  82	  88
  82	  89
  82	  90
  82	  94
  82	  96
  82	 100
  82	 103
  82	 108
  82	 109
  82	 114
  82	 119
  83	  87
  83	  91
  83	 100
  83	 101
  83	 103
  83	 105
  83	 113
  83	 118
  84	  85
  84	  93
  84	 107
  84	 112
  84	 113
  85	  97
  85	  99
  85	 111
  85	 117
  85	 118
  86	  93
  86	  98
  86	  99
  86	 100
  86	 101
  86	 105
  86	 111
  86	 117
  86	 118
  87	  88
  87	 100
  87	 110
  87	 112
  87	 114
  87	 118
  87	 119
  88	  95
  88	 102
  88	 117
  88	 118
  89	  90
  89	  92
  89	  94
  89	  96
  89	 107
  89	 108
  89	 116
  90	  98
  90	  99
  90	 101
  90	 109
  90	 116
  91	 104
  91	 118
  92	  97
  92	 108
  92	 116
  93	 104
  93	 105
  93	 107
  93	 114
  93	 118
  94	 104
  94	 117
  95	  96
  95	  97
  95	 101
  95	 104
  95	 105
  95	 107
  95	 111
  95	 113
  95	 116
  95	 117
  95	 118
  95	 119
  96	  97
  96	 100
  96	 102
  96	 107
  96	 112
  97	 102
  97	 106
  97	 114
  97	 116
  97	 117
  98	 110
  98	 111
  98	 116
  98	 117
  98	 118
  99	 101
  99	 115
 100	 105
 100	 106
 101	 108
 101	 113
 101	 115
 102	 104
 102	 114
 102	 117
 102	 119
 103	 106
 103	 111
 103	 112
 103	 118
 104	 108
 104	 113
 104	 115
 105	 114
 105	 116
 106	 108
 106	 109
 106	 117
 106	 119
 108	 112
 108	 113
 108	 118
 109	 111
 109	 112
 109	 116
 111	 114
 111	 115
 111	 118
 112	 117
 114	 118
 115	 117
 116	 119
;
